letting n_nurses=25
letting n_days=7
letting n_shift_types=4
letting max_covers=10
letting t_covers=61
letting covers=[9,7,0,0,5,8,0,0,10,2,3,0,7,0,9,0,1,0,0,0,0,0,0,0,0,0,0,0]
letting prefes=[2,1,4,3,3,4,4,2,1,4,4,2,3,4,4,2,2,1,4,3,2,1,4,3,1,4,4,2,2,4,4,3,3,4,4,2,1,1,4,3,3,4,4,2,2,4,4,3,2,4,4,3,1,1,4,3,2,4,4,3,3,4,1,2,1,4,4,2,3,4,1,2,2,4,4,3,2,4,4,3,1,4,4,2,2,4,4,3,3,4,4,2,3,4,1,2,3,4,4,2,2,4,4,3,2,4,4,3,3,4,1,2,2,4,4,3,3,4,4,2,3,1,4,2,3,4,4,2,2,4,4,3,2,4,4,3,3,1,4,2,2,4,4,3,3,4,1,2,1,4,4,2,3,4,1,2,2,4,4,3,2,4,4,3,1,4,4,2,2,1,4,3,3,4,4,1,1,4,4,2,3,4,4,1,2,1,4,3,2,1,4,3,1,4,4,2,2,4,4,1,3,4,4,1,1,4,4,2,3,4,4,1,2,4,4,1,2,4,4,1,1,4,4,2,3,4,2,3,3,4,4,2,3,1,4,2,3,4,4,2,3,4,2,3,3,4,2,3,3,1,4,2,3,4,2,3,3,4,4,2,1,4,4,2,3,4,4,2,3,4,2,3,3,4,2,3,1,4,4,2,2,4,4,3,3,4,4,1,1,4,4,2,3,4,4,1,2,4,4,3,2,4,4,3,1,4,4,2,3,4,4,1,3,4,4,2,3,4,1,2,3,4,4,2,3,4,4,1,3,4,4,1,3,4,1,2,2,4,4,3,3,4,1,2,1,4,1,3,3,4,1,2,2,4,4,3,2,4,4,3,1,4,1,3,2,4,4,3,1,4,4,2,1,4,1,3,1,4,4,2,2,4,4,3,2,4,4,3,1,4,1,3,2,1,4,3,1,3,4,2,1,4,4,2,1,3,4,2,2,1,4,3,2,1,4,3,1,4,4,2,2,4,2,3,1,3,4,2,1,1,4,3,1,3,4,2,2,4,2,3,2,4,2,3,1,1,4,3,3,4,4,1,3,3,4,2,1,4,4,2,3,3,4,2,3,4,4,1,3,4,4,1,1,4,4,2,2,4,4,3,1,4,4,2,1,4,1,3,1,4,4,2,2,4,4,3,2,4,4,3,1,4,1,3,2,4,4,3,3,3,1,2,3,1,4,2,3,3,1,2,2,4,4,3,2,4,4,3,3,1,4,2,2,4,4,1,3,3,4,2,1,4,4,2,3,3,4,2,2,4,4,1,2,4,4,1,1,4,4,2,2,1,4,3,3,4,4,1,1,4,4,2,3,4,4,1,2,1,4,3,2,1,4,3,1,4,4,2,2,1,4,3,3,4,1,2,1,4,4,2,3,4,1,2,2,1,4,3,2,1,4,3,1,4,4,2,3,4,2,1,3,4,4,2,1,4,4,2,3,4,4,2,3,4,2,1,3,4,2,1,1,4,4,2,2,4,2,3,3,4,4,1,1,4,4,2,3,4,4,1,2,4,2,3,2,4,2,3,1,4,4,2,2,4,4,3,1,4,4,2,1,4,4,2,1,4,4,2,2,4,4,3,2,4,4,3,1,4,4,2]
letting ub =  299
